nBusiness = 42;
nMeetings = 125;
nTables = 21;
nTotalSlots = 8;
nMorningSlots = 8;

requested = [|1, 8, 3,
|1, 10, 3,
|1, 12, 3,
|1, 30, 3,
|1, 32, 3,
|2, 29, 3,
|3, 5, 3,
|3, 9, 3,
|3, 10, 3,
|5, 15, 3,
|5, 23, 3,
|6, 1, 3,
|6, 4, 3,
|6, 7, 3,
|6, 8, 3,
|6, 10, 3,
|6, 12, 3,
|6, 27, 3,
|11, 4, 3,
|11, 24, 3,
|11, 25, 3,
|11, 36, 3,
|13, 24, 3,
|13, 30, 3,
|14, 2, 3,
|14, 4, 3,
|14, 15, 3,
|14, 26, 3,
|14, 30, 3,
|14, 32, 3,
|14, 36, 3,
|14, 38, 3,
|17, 8, 3,
|17, 9, 3,
|17, 10, 3,
|17, 12, 3,
|17, 20, 3,
|17, 31, 3,
|18, 4, 3,
|18, 6, 3,
|18, 11, 3,
|18, 15, 3,
|18, 16, 3,
|18, 24, 3,
|18, 25, 3,
|19, 21, 3,
|21, 1, 3,
|21, 4, 3,
|21, 5, 3,
|21, 34, 3,
|22, 3, 3,
|22, 8, 3,
|22, 9, 3,
|22, 10, 3,
|22, 15, 3,
|22, 27, 3,
|22, 28, 3,
|25, 7, 3,
|25, 12, 3,
|26, 4, 3,
|26, 5, 3,
|26, 11, 3,
|26, 24, 3,
|26, 25, 3,
|26, 30, 3,
|27, 1, 3,
|27, 2, 3,
|27, 8, 3,
|27, 9, 3,
|27, 15, 3,
|28, 2, 3,
|28, 3, 3,
|28, 20, 3,
|28, 25, 3,
|28, 29, 3,
|28, 41, 3,
|32, 12, 3,
|32, 24, 3,
|33, 3, 3,
|33, 5, 3,
|33, 9, 3,
|33, 10, 3,
|33, 12, 3,
|33, 20, 3,
|33, 31, 3,
|33, 41, 3,
|34, 5, 3,
|34, 11, 3,
|34, 19, 3,
|34, 27, 3,
|34, 30, 3,
|35, 2, 3,
|35, 3, 3,
|35, 4, 3,
|35, 15, 3,
|35, 16, 3,
|35, 18, 3,
|35, 28, 3,
|35, 29, 3,
|36, 2, 3,
|36, 15, 3,
|36, 21, 3,
|36, 24, 3,
|36, 25, 3,
|36, 30, 3,
|39, 9, 3,
|39, 11, 3,
|39, 15, 3,
|39, 23, 3,
|39, 24, 3,
|39, 30, 3,
|41, 5, 3,
|41, 9, 3,
|41, 10, 3,
|41, 17, 3,
|41, 23, 3,
|41, 25, 3,
|42, 3, 3,
|42, 4, 3,
|42, 8, 3,
|42, 9, 3,
|42, 10, 3,
|42, 20, 3,
|42, 26, 3,
|42, 30, 3,
|];

nMeetingsBusiness = [8, 6, 8, 8, 8, 8, 2, 6, 8, 8, 8, 6, 2, 8, 8, 2, 7, 8, 2, 4, 6, 7, 3, 7, 8, 8, 8, 8, 3, 8, 2, 4, 8, 6, 8, 8, 0, 1, 6, 0, 8, 8, ];

fixat = [0,0,0,0,0,0,0,0,0,0,0,0,0,0,0,0,0,0,0,0,0,0,0,0,0,0,0,0,0,0,0,0,0,0,0,0,0,0,0,0,0,0,0,0,0,0,0,0,0,0,0,0,0,0,0,0,0,0,0,0,0,0,0,0,0,0,0,0,0,0,0,0,0,0,0,0,0,0,0,0,0,0,0,0,0,0,0,0,0,0,0,0,0,0,0,0,0,0,0,0,0,0,0,0,0,0,0,0,0,0,0,0,0,0,0,0,0,0,0,0,0,0,0,0,0,];

forbidden = [{0,},
{0,},
{0,},
{0,},
{0,},
{0,},
{0,},
{0,},
{0,},
{0,},
{0,},
{0,},
{0,},
{0,},
{0,},
{0,},
{0,},
{0,},
{0,},
{0,},
{0,},
{0,},
{0,},
{0,},
{0,},
{0,},
{0,},
{0,},
{0,},
{0,},
{0,},
{0,},
{0,},
{0,},
{0,},
{0,},
{0,},
{0,},
{0,},
{0,},
{0,},
{0,},
];